DATASET = "thpack5";
INSTANCE = "072";

WIDTH = 233;
HEIGHT = 220;
LENGTH = 587;

NO_OF_SHAPES = 12;
size = [|
  96,95,68 |
  69,61,35 |
  107,70,55 |
  92,85,34 |
  96,60,31 |
  66,38,38 |
  63,57,36 |
  51,31,31 |
  100,75,44 |
  78,66,53 |
  33,32,29 |
  81,72,45 |
|];

verticality = [|
  1,1,1 |
  1,1,1 |
  1,1,1 |
  0,0,1 |
  0,1,1 |
  1,1,1 |
  1,1,1 |
  1,1,1 |
  0,1,1 |
  1,1,1 |
  1,1,1 |
  1,1,1 |
|];

box_count = [
  11,
  5,
  11,
  9,
  9,
  12,
  15,
  14,
  10,
  14,
  15,
  10,
];
